 Run started: Fri, 16 Oct 2020 11:54:59 +0100

 Atomic calculation performed for O: 1s2 2s2 2p4

 Converged in 60 iterations to an ae energy of -2027.926 eV

   | Pseudopotential Report - Date of generation 16-10-2020   |
   | Element: O Ionic charge:  6.00 Level of theory: LDA      |
   | Atomic Solver: Koelling-Harmon                           |
   |               Reference Electronic Structure             |
   |         Orbital         Occupation         Energy        |
   |            2s              2.000           -0.873        |
   |            2p              4.000           -0.338        |
   |                 Pseudopotential Definition               |
   |        Beta     l      e      Rc     scheme   norm       |
   |          1      0   -0.873   1.100     qc      0         |
   |          2      0    0.250   1.100     qc      0         |
   |          3      1   -0.338   1.100     qc      0         |
   |          4      1    0.250   1.100     qc      0         |
   |         loc     2    0.000   1.100     pn      0         |
   | Augmentation charge Rinner = 0.769                       |
   | Partial core correction Rc = 0.769                       |
   | "2|1.1|17|20|23|20:21(qc=8)"                             |
   |      Author: Chris J. Pickard, Cambridge University      |

 Atomic calculation performed for Mg: 1s2 2s2 2p6 3s2

[...]

   | Pseudopotential Report - Date of generation 16-10-2020   |
   | Element: Mg Ionic charge: 10.00 Level of theory: LDA     |
   | Atomic Solver: Koelling-Harmon                           |
   |               Reference Electronic Structure             |
   |         Orbital         Occupation         Energy        |
   |            2s              2.000           -2.914        |
   |            2p              6.000           -1.717        |
   |            3s              2.000           -0.176        |
   |                 Pseudopotential Definition               |
   |        Beta     l      e      Rc     scheme   norm       |
   |          1      0   -2.914   1.804     qc      0         |
   |          2      0   -0.176   1.804     qc      0         |
   |          3      0    0.250   1.804     qc      0         |
   |          4      1   -1.717   1.804     qc      0         |
   |          5      1    0.250   1.804     qc      0         |
   |          6      2    0.000   1.804     qc      0         |
   |          7      2    0.250   1.804     qc      0         |
   |         loc     3    0.000   1.804     pn      0         |
   | Augmentation charge Rinner = 1.261                       |
   | Partial core correction Rc = 1.261                       |
   | "3|1.8|7|8|9|20U:30:21:32"                               |
   |      Author: Chris J. Pickard, Cambridge University      |

 Atomic calculation performed for Ca: 1s2 2s2 2p6 3s2 3p6 4s2

 Converged in 44 iterations to an ae energy of -18468.059 eV

   | Pseudopotential Report - Date of generation 16-10-2020   |
   | Element: Ca Ionic charge: 10.00 Level of theory: LDA     |
   | Atomic Solver: Koelling-Harmon                           |
   |               Reference Electronic Structure             |
   |         Orbital         Occupation         Energy        |
   |            3s              2.000           -1.721        |
   |            3p              6.000           -1.028        |
   |            4s              2.000           -0.142        |
   |                 Pseudopotential Definition               |
   |        Beta     l      e      Rc     scheme   norm       |
   |          1      0   -1.721   2.005     qc      0         |
   |          2      0   -0.142   2.005     qc      0         |
   |          3      0    0.250   2.005     qc      0         |
   |          4      1   -1.028   2.005     qc      0         |
   |          5      1    0.250   2.005     qc      0         |
   |          6      2    0.000   2.005     qc      0         |
   |          7      2    0.250   2.005     qc      0         |
   |         loc     3    0.000   2.005     pn      0         |
   | Augmentation charge Rinner = 1.401                       |
   | Partial core correction Rc = 1.401                       |
   | "3|2.0|7|8|9|30U:40:31:32"                               |
   |      Author: Chris J. Pickard, Cambridge University      |

 Pseudo atomic calculation performed for O 2s2 2p4

 Converged in 27 iterations to a total energy of -404.4576 eV

 Pseudo atomic calculation performed for Mg 2s2 2p6 3s2

[...]

 Calculation not parallelised.

 ************************************ Title ************************************
 MgO

 ***************************** General Parameters ******************************

 output verbosity                               : normal  (1)
 write checkpoint data to                       : MgO.check
 type of calculation                            : geometry optimization
 stress calculation                             : on
 density difference calculation                 : off
 electron localisation func (ELF) calculation   : off
 Hirshfeld analysis                             : off
 unlimited duration calculation
 timing information                             : on
 write extra output files                       : on
 write final potential to formatted file        : off
 write final density to formatted file          : off
 write BibTeX reference list                    : on
 write OTFG pseudopotential files               : on
 write electrostatic potential file             : on
 write bands file                               : on
 checkpoint writing                             : both castep_bin and check files

 output         length unit                     : A
 output           mass unit                     : amu
 output           time unit                     : ps
 output         charge unit                     : e
 output           spin unit                     : hbar/2
 output         energy unit                     : eV
 output          force unit                     : eV/A
 output       velocity unit                     : A/ps
 output       pressure unit                     : GPa
 output     inv_length unit                     : 1/A
 output      frequency unit                     : cm-1
 output force constant unit                     : eV/A**2
 output         volume unit                     : A**3
 output   IR intensity unit                     : (D/A)**2/amu
 output         dipole unit                     : D
 output         efield unit                     : eV/A/e
 output        entropy unit                     : J/mol/K

 wavefunctions paging                           : none
 random number generator seed                   : randomised (115500014)
 data distribution                              : optimal for this architecture
 optimization strategy                          : maximize speed(+++)

 *********************** Exchange-Correlation Parameters ***********************

 using functional                               : Local Density Approximation
 relativistic treatment                         : Koelling-Harmon
 DFT+D: Semi-empirical dispersion correction    : off

 ************************* Pseudopotential Parameters **************************

 pseudopotential representation                 : reciprocal space
 <beta|phi> representation                      : reciprocal space
 spin-orbit coupling                            : off

 **************************** Basis Set Parameters *****************************

 plane wave basis set cut-off                   :   300.0000   eV
 size of standard grid                          :     2.0000
 size of   fine   gmax                          :    17.7472   1/A
 finite basis set correction                    : automatic
 number of sample energies                      :          3
           sample  spacing                      :     5.0000   eV

 **************************** Electronic Parameters ****************************

 number of  electrons                           :  64.00
 net charge of system                           :  0.000
 treating system as non-spin-polarized
 number of bands                                :         38

 ********************* Electronic Minimization Parameters **********************

 Method: Treating system as metallic with density mixing treatment of electrons,
         and number of  SD  steps               :          1
         and number of  CG  steps               :          4

 total energy / atom convergence tol.           : 0.1000E-06   eV
 eigen-energy convergence tolerance             : 0.2500E-07   eV
 max force / atom convergence tol.              : ignored
 convergence tolerance window                   :          3   cycles
 max. number of SCF cycles                      :         60
 number of fixed-spin iterations                :         10
 smearing scheme                                : Gaussian
 smearing width                                 : 0.2000       eV
 Fermi energy convergence tolerance             : 0.2721E-13   eV
 periodic dipole correction                     : NONE

 ************************** Density Mixing Parameters **************************

 density-mixing scheme                          : Pulay
 max. length of mixing history                  :         30
 charge density mixing amplitude                : 0.8000
 cut-off energy for mixing                      :  300.0       eV

 *********************** Population Analysis Parameters ************************

 Population analysis with cutoff                :  3.000       A
 Population analysis output                     : summary and pdos components

 ********************** Geometry Optimization Parameters ***********************

 optimization method                            : LBFGS
 max. no. of LBFGS updates                      : unbounded
 variable cell method                           : fixed basis quality
 max. number of steps                           :         30
 estimated bulk modulus                         :  500.0       GPa
 estimated <frequency>                          :  1668.       cm-1
 geom line minimiser                            : on
 with line minimiser tolerance                  :     0.4000
 total energy convergence tolerance             : 0.2000E-04   eV/atom
        max ionic |force| tolerance             : 0.5000E-01   eV/A
 max ionic |displacement| tolerance             : 0.1000E-02   A
   max |stress component| tolerance             : 0.1000       GPa
 convergence tolerance window                   :          2   steps
 backup results every                           :          5   steps
 write geom trajectory file                     : on

                                      Unit Cell
        Real Lattice(A)                      Reciprocal Lattice(1/A)
     4.3600000     0.0000000     0.0000000        1.441097548   0.000000000   0.000000000
     0.0000000     4.3600000     0.0000000        0.000000000   1.441097548   0.000000000
     0.0000000     0.0000000     4.3600000        0.000000000   0.000000000   1.441097548

                       Lattice parameters(A)       Cell Angles
                    a =      4.360000          alpha =   90.000000
[...]
     10  -6.36167920E+003  8.41220972E+000   3.03847210E-010      60.65  <-- SCF
------------------------------------------------------------------------ <-- SCF

[...]

 For future reference: finite basis dEtot/dlog(Ecut) =    -239.479200eV
 Total energy corrected for finite basis set =   -6360.930639 eV

 *********** Symmetrised Stress Tensor ***********
 *          Cartesian components (GPa)           *
 *             x             y             z     *
 *  x    -60.574713     -0.000000     -0.000000  *
 *  y     -0.000000    -60.574713     -0.000000  *
 *  z     -0.000000     -0.000000    -60.574713  *
 *  Pressure:   60.5747                          *
 LBFGS: finished iteration     0 with enthalpy= -6.36093064E+003 eV

 +-----------+-----------------+-----------------+------------+-----+ <-- LBFGS
 | Parameter |      value      |    tolerance    |    units   | OK? | <-- LBFGS
 +-----------+-----------------+-----------------+------------+-----+ <-- LBFGS
 |  dE/ion   |   0.000000E+000 |   2.000000E-005 |         eV | No  | <-- LBFGS
 |   Smax    |   6.057471E+001 |   1.000000E-001 |        GPa | No  | <-- LBFGS
 +-----------+-----------------+-----------------+------------+-----+ <-- LBFGS

 Starting LBFGS iteration          1 ...

 +------------+-------------+-------------+-----------------+ <-- min LBFGS
 |    Step    |   lambda    |   F.delta'  |    enthalpy     | <-- min LBFGS
 +------------+-------------+-------------+-----------------+ <-- min LBFGS
 |  previous  |    0.000000 |    1.994575 |    -6360.930639 | <-- min LBFGS
 +------------+-------------+-------------+-----------------+ <-- min LBFGS

 LBFGS: starting iteration         1 with trial guess (lambda=  1.000000)

[...]

                Current cell volume =            93.333894 A**3

------------------------------------------------------------------------ <-- SCF
SCF loop      Energy           Fermi           Energy gain       Timer   <-- SCF
                               energy          per atom          (sec)   <-- SCF
------------------------------------------------------------------------ <-- SCF
Initial  -6.33705586E+003  0.00000000E+000                        66.42  <-- SCF
      1  -6.36967736E+003  5.53797664E+000   4.07768806E+000      67.77  <-- SCF
      2  -6.36996364E+003  5.55373574E+000   3.57847638E-002      69.16  <-- SCF
      3  -6.36387435E+003  7.08693089E+000  -7.61160854E-001      71.21  <-- SCF
      4  -6.36353894E+003  6.50851250E+000  -4.19267790E-002      73.34  <-- SCF
      5  -6.36349228E+003  6.70717036E+000  -5.83234524E-003      75.45  <-- SCF
      6  -6.36349265E+003  6.70790086E+000   4.67687966E-005      77.68  <-- SCF
      7  -6.36349262E+003  6.70777387E+000  -3.85992549E-006      79.78  <-- SCF
      8  -6.36349262E+003  6.70630053E+000  -3.88380926E-007      81.82  <-- SCF
      9  -6.36349262E+003  6.70686717E+000  -5.48761788E-008      83.43  <-- SCF
     10  -6.36349262E+003  6.70696444E+000   3.43531995E-009      84.96  <-- SCF
     11  -6.36349262E+003  6.70693025E+000   1.86001283E-010      86.52  <-- SCF
------------------------------------------------------------------------ <-- SCF

[...]

 *********** Symmetrised Stress Tensor ***********
 *          Cartesian components (GPa)           *
 *             x             y             z     *
 *  x    -35.051715      0.000000      0.000000  *
 *  y      0.000000    -35.051715      0.000000  *
 *  z      0.000000      0.000000    -35.051715  *
 *  Pressure:   35.0517                          *

 +------------+-------------+-------------+-----------------+ <-- min LBFGS
 |    Step    |   lambda    |   F.delta'  |    enthalpy     | <-- min LBFGS
 +------------+-------------+-------------+-----------------+ <-- min LBFGS
 |  previous  |    0.000000 |    1.994575 |    -6360.930639 | <-- min LBFGS
 | trial step |    1.000000 |    1.249266 |    -6363.624114 | <-- min LBFGS
 +------------+-------------+-------------+-----------------+ <-- min LBFGS

 LBFGS: improving iteration         1 with line minimization (lambda=  1.502742)

[...]

 +------------+-------------+-------------+-----------------+ <-- min LBFGS
 |    Step    |   lambda    |   F.delta'  |    enthalpy     | <-- min LBFGS
 +------------+-------------+-------------+-----------------+ <-- min LBFGS
 |  previous  |    0.000000 |    1.994575 |    -6360.930639 | <-- min LBFGS
 | trial step |    1.000000 |    1.249266 |    -6363.624114 | <-- min LBFGS
 |  line step |    1.502742 |    0.967316 |    -6364.156050 | <-- min LBFGS
 +------------+-------------+-------------+-----------------+ <-- min LBFGS

 LBFGS: improving iteration         1 with quad minimization (lambda=  3.005485)

[...]

 +------------+-------------+-------------+-----------------+ <-- min LBFGS
 |    Step    |   lambda    |   F.delta'  |    enthalpy     | <-- min LBFGS
 +------------+-------------+-------------+-----------------+ <-- min LBFGS
 |  previous  |    0.000000 |    1.994575 |    -6360.930639 | <-- min LBFGS
 | trial step |    1.000000 |    1.249266 |    -6363.624114 | <-- min LBFGS
 |  line step |    1.502742 |    0.967316 |    -6364.156050 | <-- min LBFGS
 |  quad step |    3.005485 |    0.299745 |    -6363.802342 | <-- min LBFGS
 +------------+-------------+-------------+-----------------+ <-- min LBFGS

 LBFGS: finished iteration     1 with enthalpy= -6.36380234E+003 eV

[...]

 WARNING in geom_xvec_to_mdl - large cell change detected
                             - consider your initial cell

[...]

 +-----------+-----------------+-----------------+------------+-----+ <-- LBFGS
 | Parameter |      value      |    tolerance    |    units   | OK? | <-- LBFGS
 +-----------+-----------------+-----------------+------------+-----+ <-- LBFGS
 |  dE/ion   |   4.117514E-002 |   2.000000E-005 |         eV | No  | <-- LBFGS
 |   Smax    |   3.480582E-001 |   1.000000E-001 |        GPa | No  | <-- LBFGS
 +-----------+-----------------+-----------------+------------+-----+ <-- LBFGS

[...]

 LBFGS: improving iteration         4 with line minimization (lambda=  0.374367)

[...]

 +------------+-------------+-------------+-----------------+ <-- min LBFGS
 |    Step    |   lambda    |   F.delta'  |    enthalpy     | <-- min LBFGS
 +------------+-------------+-------------+-----------------+ <-- min LBFGS
 |  previous  |    0.000000 |    0.015601 |    -6363.017161 | <-- min LBFGS
 | trial step |    1.000000 |   -0.026073 |    -6362.906059 | <-- min LBFGS
 |  line step |    0.374367 |    0.000437 |    -6362.943835 | <-- min LBFGS
 +------------+-------------+-------------+-----------------+ <-- min LBFGS

[...]

 +-----------+-----------------+-----------------+------------+-----+ <-- LBFGS
 | Parameter |      value      |    tolerance    |    units   | OK? | <-- LBFGS
 +-----------+-----------------+-----------------+------------+-----+ <-- LBFGS
 |  dE/ion   |   9.165787E-003 |   2.000000E-005 |         eV | No  | <-- LBFGS
 |   Smax    |   9.718320E-003 |   1.000000E-001 |        GPa | Yes | <-- LBFGS
 +-----------+-----------------+-----------------+------------+-----+ <-- LBFGS

 Starting LBFGS iteration          5 ...

Writing analysis data to MgO.castep_bin

Writing model to MgO.check

 +------------+-------------+-------------+-----------------+ <-- min LBFGS
 |    Step    |   lambda    |   F.delta'  |    enthalpy     | <-- min LBFGS
 +------------+-------------+-------------+-----------------+ <-- min LBFGS
 |  previous  |    0.000000 |    0.000437 |    -6362.943835 | <-- min LBFGS
 +------------+-------------+-------------+-----------------+ <-- min LBFGS

 LBFGS: starting iteration         5 with trial guess (lambda=  1.000000)

[...]

------------------------------------------------------------------------ <-- SCF
SCF loop      Energy           Fermi           Energy gain       Timer   <-- SCF
                               energy          per atom          (sec)   <-- SCF
------------------------------------------------------------------------ <-- SCF
Initial  -6.36309774E+003  0.00000000E+000                       294.58  <-- SCF
      1  -6.36310874E+003  3.40369647E+000   1.37484783E-003     296.31  <-- SCF
      2  -6.36310874E+003  3.40369647E+000   9.50636701E-009     298.08  <-- SCF
      3  -6.36310874E+003  3.40381201E+000  -3.79473166E-007     300.19  <-- SCF
      4  -6.36310874E+003  3.40378067E+000   2.85479100E-009     301.92  <-- SCF
      5  -6.36310874E+003  3.40380678E+000   1.01411302E-009     303.69  <-- SCF
------------------------------------------------------------------------ <-- SCF

Final energy, E             =  -6363.097735412     eV
Final free energy (E-TS)    =  -6363.108740786     eV
(energies not corrected for finite basis set)

NB est. 0K energy (E-0.5TS)      =  -6363.103238099     eV

[...]

 +------------+-------------+-------------+-----------------+ <-- min LBFGS
 |    Step    |   lambda    |   F.delta'  |    enthalpy     | <-- min LBFGS
 +------------+-------------+-------------+-----------------+ <-- min LBFGS
 |  previous  |    0.000000 |    0.000437 |    -6362.943835 | <-- min LBFGS
 | trial step |    1.000000 |    0.000729 |    -6362.943836 | <-- min LBFGS
 +------------+-------------+-------------+-----------------+ <-- min LBFGS

 LBFGS: finished iteration     5 with enthalpy= -6.36294384E+003 eV

 +-----------+-----------------+-----------------+------------+-----+ <-- LBFGS
 | Parameter |      value      |    tolerance    |    units   | OK? | <-- LBFGS
 +-----------+-----------------+-----------------+------------+-----+ <-- LBFGS
 |  dE/ion   |   1.114489E-007 |   2.000000E-005 |         eV | Yes | <-- LBFGS
 |   Smax    |   1.623711E-002 |   1.000000E-001 |        GPa | Yes | <-- LBFGS
 +-----------+-----------------+-----------------+------------+-----+ <-- LBFGS

 LBFGS: Geometry optimization completed successfully.

 LBFGS: Final Configuration:

                                      Unit Cell
        Real Lattice(A)              Reciprocal Lattice(1/A)
     5.0923703     0.0000000     0.0000000        1.233842966  -0.000000000  -0.000000000
     0.0000000     5.0923703     0.0000000       -0.000000000   1.233842966  -0.000000000
     0.0000000     0.0000000     5.0923703       -0.000000000  -0.000000000   1.233842966

                       Lattice parameters(A)       Cell Angles
                    a =      5.092370          alpha =   90.000000
                    b =      5.092370          beta  =   90.000000
                    c =      5.092370          gamma =   90.000000

                Current cell volume =           132.056547 A**3

 LBFGS: Final Enthalpy     = -6.36294384E+003 eV
 LBFGS: Final bulk modulus =     110.28353 GPa

  *** There were at least     1 warnings during this run ***
  *** => please check the whole of this file carefully!  ***

 ******************************** Symmetrised Forces ********************************
 *                           Cartesian components (eV/A)                            *
 *                         x                    y                    z              *
 * O               1      0.00000              0.00000              0.00000         *
 * O               2      0.00000              0.00000              0.00000         *
 * O               3      0.00000              0.00000              0.00000         *
 * O               4      0.00000              0.00000              0.00000         *
 * Mg              1      0.00000              0.00000              0.00000         *
 * Ca              1      0.00000              0.00000              0.00000         *
 * Ca              2      0.00000              0.00000              0.00000         *
 * Ca              3      0.00000              0.00000              0.00000         *

 *********** Symmetrised Stress Tensor ***********
 *          Cartesian components (GPa)           *
 *             x             y             z     *
 *  x     -0.016237      0.000000      0.000000  *
 *  y      0.000000     -0.016237      0.000000  *
 *  z      0.000000      0.000000     -0.016237  *
 *  Pressure:    0.0162                          *

 Pseudo atomic calculation performed for O 2s2 2p4

[...]

 Pseudo atomic calculation performed for Ca 3s2 3p6 4s2

 Converged in 24 iterations to a total energy of -1001.5497 eV

Charge spilling parameter for spin component 1 = 0.27%

            Orbital Populations
     Ion    Atom   Orbital             Charge
      O     1      S                    1.953
      O     1      Px                   1.721
      O     1      Py                   1.720
      O     1      Pz                   1.554
      O     2      S                    1.946
      O     2      Px                   1.709
      O     2      Py                   1.630
      O     2      Pz                   1.749
      O     3      S                    1.946
      O     3      Px                   1.629
      O     3      Py                   1.709
      O     3      Pz                   1.749
      O     4      S                    1.946
      O     4      Px                   1.697
      O     4      Py                   1.697
      O     4      Pz                   1.714
     Mg     1      S                    2.000
     Mg     1      Px                   2.000
     Mg     1      Py                   2.000
     Mg     1      Pz                   2.000
     Mg     1      S                    0.523
     Mg     1      Px                   0.228
     Mg     1      Py                   0.228
     Mg     1      Pz                   0.268
     Ca     1      S                    2.003
     Ca     1      Px                   1.998
     Ca     1      Py                   1.998
     Ca     1      Pz                   1.999
     Ca     1      S                    0.281
     Ca     1      Dzz                  0.148
     Ca     1      Dzy                  0.117
     Ca     1      Dzx                  0.117
     Ca     1      Dxx-yy               0.212
     Ca     1      Dxy                  0.089
     Ca     2      S                    2.006
     Ca     2      Px                   1.998
     Ca     2      Py                   1.998
     Ca     2      Pz                   1.999
     Ca     2      S                    0.207
     Ca     2      Dzz                  0.140
     Ca     2      Dzy                  0.111
     Ca     2      Dzx                  0.085
     Ca     2      Dxx-yy               0.213
     Ca     2      Dxy                  0.103
     Ca     3      S                    2.006
     Ca     3      Px                   1.998
     Ca     3      Py                   1.998
     Ca     3      Pz                   1.999
     Ca     3      S                    0.207
     Ca     3      Dzz                  0.140
     Ca     3      Dzy                  0.085
     Ca     3      Dzx                  0.111
     Ca     3      Dxx-yy               0.213
     Ca     3      Dxy                  0.103
                           Total:      64.000

     Atomic Populations (Mulliken)
Species          Ion     s      p      d      f     Total  Charge (e)
  O               1     1.95   5.06   0.00   0.00   7.01    -1.01
  O               2     1.95   5.06   0.00   0.00   7.01    -1.01
  O               3     1.95   5.06   0.00   0.00   7.01    -1.01
  O               4     1.95   5.11   0.00   0.00   7.05    -1.05
  Mg              1     2.52   6.72   0.00   0.00   9.25     0.75
  Ca              1     2.24   6.00   0.66   0.00   8.89     1.11
  Ca              2     2.24   6.00   0.66   0.00   8.89     1.11
  Ca              3     2.24   6.00   0.66   0.00   8.89     1.11

                 Bond                   Population      Length (A)
               O 4 -- Ca 3                   0.28        2.54619
               O 4 -- Ca 2                   0.28        2.54619
               O 4 -- Ca 1                   0.28        2.54619
               O 3 -- Ca 2                   0.27        2.54619
               O 3 -- Ca 1                   0.27        2.54619
               O 3 -- Mg 1                   0.45        2.54619
               O 2 -- Ca 3                   0.27        2.54619
               O 2 -- Ca 1                   0.27        2.54619
               O 2 -- Mg 1                   0.45        2.54619
               O 1 -- Ca 3                   0.27        2.54619
               O 1 -- Ca 2                   0.27        2.54619
               O 1 -- Mg 1                   0.45        2.54619

Writing analysis data to MgO.castep_bin

Writing model to MgO.check

 A BibTeX formatted list of references used in this run has been written to
 MgO.bib

Initialisation time =     16.43 s
Calculation time    =    292.01 s
Finalisation time   =      0.12 s
Total time          =    308.56 s