 Run started: Fri, 16 Oct 2020 10:44:47 +0100

 Atomic calculation performed for O: 1s2 2s2 2p4

 Converged in 60 iterations to an ae energy of -2027.926 eV

   | Pseudopotential Report - Date of generation 16-10-2020   |
   | Element: O Ionic charge:  6.00 Level of theory: LDA      |
   | Atomic Solver: Koelling-Harmon                           |
   |               Reference Electronic Structure             |
   |         Orbital         Occupation         Energy        |
   |            2s              2.000           -0.873        |
   |            2p              4.000           -0.338        |
   |                 Pseudopotential Definition               |
   |        Beta     l      e      Rc     scheme   norm       |
   |          1      0   -0.873   1.100     qc      0         |
   |          2      0    0.250   1.100     qc      0         |
   |          3      1   -0.338   1.100     qc      0         |
   |          4      1    0.250   1.100     qc      0         |
   |         loc     2    0.000   1.100     pn      0         |
   | Augmentation charge Rinner = 0.769                       |
   | Partial core correction Rc = 0.769                       |
   | "2|1.1|17|20|23|20:21(qc=8)"                             |
   |      Author: Chris J. Pickard, Cambridge University      |

 Atomic calculation performed for Mg: 1s2 2s2 2p6 3s2

[...]

   | Pseudopotential Report - Date of generation 16-10-2020   |
   | Element: Mg Ionic charge: 10.00 Level of theory: LDA     |
   | Atomic Solver: Koelling-Harmon                           |
   |               Reference Electronic Structure             |
   |         Orbital         Occupation         Energy        |
   |            2s              2.000           -2.914        |
   |            2p              6.000           -1.717        |
   |            3s              2.000           -0.176        |
   |                 Pseudopotential Definition               |
   |        Beta     l      e      Rc     scheme   norm       |
   |          1      0   -2.914   1.804     qc      0         |
   |          2      0   -0.176   1.804     qc      0         |
   |          3      0    0.250   1.804     qc      0         |
   |          4      1   -1.717   1.804     qc      0         |
   |          5      1    0.250   1.804     qc      0         |
   |          6      2    0.000   1.804     qc      0         |
   |          7      2    0.250   1.804     qc      0         |
   |         loc     3    0.000   1.804     pn      0         |
   | Augmentation charge Rinner = 1.261                       |
   | Partial core correction Rc = 1.261                       |
   | "3|1.8|7|8|9|20U:30:21:32"                               |
   |      Author: Chris J. Pickard, Cambridge University      |

 Atomic calculation performed for Ca: 1s2 2s2 2p6 3s2 3p6 4s2

 Converged in 44 iterations to an ae energy of -18468.059 eV

   | Pseudopotential Report - Date of generation 16-10-2020   |
   | Element: Ca Ionic charge: 10.00 Level of theory: LDA     |
   | Atomic Solver: Koelling-Harmon                           |
   |               Reference Electronic Structure             |
   |         Orbital         Occupation         Energy        |
   |            3s              2.000           -1.721        |
   |            3p              6.000           -1.028        |
   |            4s              2.000           -0.142        |
   |                 Pseudopotential Definition               |
   |        Beta     l      e      Rc     scheme   norm       |
   |          1      0   -1.721   2.005     qc      0         |
   |          2      0   -0.142   2.005     qc      0         |
   |          3      0    0.250   2.005     qc      0         |
   |          4      1   -1.028   2.005     qc      0         |
   |          5      1    0.250   2.005     qc      0         |
   |          6      2    0.000   2.005     qc      0         |
   |          7      2    0.250   2.005     qc      0         |
   |         loc     3    0.000   2.005     pn      0         |
   | Augmentation charge Rinner = 1.401                       |
   | Partial core correction Rc = 1.401                       |
   | "3|2.0|7|8|9|30U:40:31:32"                               |
   |      Author: Chris J. Pickard, Cambridge University      |

 Pseudo atomic calculation performed for O 2s2 2p4

 Converged in 27 iterations to a total energy of -404.4576 eV

 Pseudo atomic calculation performed for Mg 2s2 2p6 3s2

[...]

 Calculation not parallelised.

 ************************************ Title ************************************
 MgO

 ***************************** General Parameters ******************************

 output verbosity                               : normal  (1)
 write checkpoint data to                       : MgO.check
 type of calculation                            : geometry optimization
 stress calculation                             : on
 density difference calculation                 : off
 electron localisation func (ELF) calculation   : off
 Hirshfeld analysis                             : off
 unlimited duration calculation
 timing information                             : on
 write extra output files                       : on
 write final potential to formatted file        : off
 write final density to formatted file          : off
 write BibTeX reference list                    : on
 write OTFG pseudopotential files               : on
 write electrostatic potential file             : on
 write bands file                               : on
 checkpoint writing                             : both castep_bin and check files

 output         length unit                     : A
 output           mass unit                     : amu
 output           time unit                     : ps
 output         charge unit                     : e
 output           spin unit                     : hbar/2
 output         energy unit                     : eV
 output          force unit                     : eV/A
 output       velocity unit                     : A/ps
 output       pressure unit                     : GPa
 output     inv_length unit                     : 1/A
 output      frequency unit                     : cm-1
 output force constant unit                     : eV/A**2
 output         volume unit                     : A**3
 output   IR intensity unit                     : (D/A)**2/amu
 output         dipole unit                     : D
 output         efield unit                     : eV/A/e
 output        entropy unit                     : J/mol/K

 wavefunctions paging                           : none
 random number generator seed                   : randomised (104447398)
 data distribution                              : optimal for this architecture
 optimization strategy                          : maximize speed(+++)

 *********************** Exchange-Correlation Parameters ***********************

 using functional                               : Local Density Approximation
 relativistic treatment                         : Koelling-Harmon
 DFT+D: Semi-empirical dispersion correction    : off

 ************************* Pseudopotential Parameters **************************

 pseudopotential representation                 : reciprocal space
 <beta|phi> representation                      : reciprocal space
 spin-orbit coupling                            : off

 **************************** Basis Set Parameters *****************************

 plane wave basis set cut-off                   :   300.0000   eV
 size of standard grid                          :     2.0000
 size of   fine   gmax                          :    17.7472   1/A
 finite basis set correction                    : automatic
 number of sample energies                      :          3
           sample  spacing                      :     5.0000   eV

 **************************** Electronic Parameters ****************************

 number of  electrons                           :  64.00
 net charge of system                           :  0.000
 treating system as non-spin-polarized
 number of bands                                :         38

 ********************* Electronic Minimization Parameters **********************

 Method: Treating system as metallic with density mixing treatment of electrons,
         and number of  SD  steps               :          1
         and number of  CG  steps               :          4

 total energy / atom convergence tol.           : 0.1000E-06   eV
 eigen-energy convergence tolerance             : 0.2500E-07   eV
 max force / atom convergence tol.              : ignored
 convergence tolerance window                   :          3   cycles
 max. number of SCF cycles                      :         60
 number of fixed-spin iterations                :         10
 smearing scheme                                : Gaussian
 smearing width                                 : 0.2000       eV
 Fermi energy convergence tolerance             : 0.2721E-13   eV
 periodic dipole correction                     : NONE

 ************************** Density Mixing Parameters **************************

 density-mixing scheme                          : Pulay
 max. length of mixing history                  :         30
 charge density mixing amplitude                : 0.8000
 cut-off energy for mixing                      :  300.0       eV

 *********************** Population Analysis Parameters ************************

 Population analysis with cutoff                :  3.000       A
 Population analysis output                     : summary and pdos components

 ********************** Geometry Optimization Parameters ***********************

 optimization method                            : LBFGS
 max. no. of LBFGS updates                      : unbounded
 variable cell method                           : fixed basis quality
 max. number of steps                           :         30
 estimated bulk modulus                         :  500.0       GPa
 estimated <frequency>                          :  1668.       cm-1
 geom line minimiser                            : on
 with line minimiser tolerance                  :     0.4000
 total energy convergence tolerance             : 0.2000E-04   eV/atom
        max ionic |force| tolerance             : 0.5000E-01   eV/A
 max ionic |displacement| tolerance             : 0.1000E-02   A
   max |stress component| tolerance             : 0.1000       GPa
 convergence tolerance window                   :          2   steps
 backup results every                           :          5   steps
 write geom trajectory file                     : on

                                      Unit Cell
        Real Lattice(A)                      Reciprocal Lattice(1/A)
     4.3600000     0.0000000     0.0000000        1.441097548   0.000000000   0.000000000
     0.0000000     4.3600000     0.0000000        0.000000000   1.441097548   0.000000000
     0.0000000     0.0000000     4.3600000        0.000000000   0.000000000   1.441097548

                       Lattice parameters(A)       Cell Angles
                    a =      4.360000          alpha =   90.000000
[...]
 |  dE/ion   |   0.000000E+000 |   2.000000E-005 |         eV | No  | <-- LBFGS
 |   Smax    |   2.594592E+001 |   1.000000E-001 |        GPa | No  | <-- LBFGS
 +-----------+-----------------+-----------------+------------+-----+ <-- LBFGS

 Starting LBFGS iteration          1 ...

 +------------+-------------+-------------+-----------------+ <-- min LBFGS
 |    Step    |   lambda    |   F.delta'  |    enthalpy     | <-- min LBFGS
 +------------+-------------+-------------+-----------------+ <-- min LBFGS
 |  previous  |    0.000000 |    0.854335 |    -7728.223891 | <-- min LBFGS
 +------------+-------------+-------------+-----------------+ <-- min LBFGS

 LBFGS: starting iteration         1 with trial guess (lambda=  1.000000)

[...]

                Current cell volume =            87.257570 A**3

------------------------------------------------------------------------ <-- SCF
SCF loop      Energy           Fermi           Energy gain       Timer   <-- SCF
                               energy          per atom          (sec)   <-- SCF
------------------------------------------------------------------------ <-- SCF
Initial  -7.71972419E+003  0.00000000E+000                        51.72  <-- SCF
      1  -7.72983787E+003  5.13172978E+000   1.26420988E+000      53.04  <-- SCF
      2  -7.72991279E+003  5.13151675E+000   9.36407766E-003      54.91  <-- SCF
      3  -7.72881774E+003  5.67601230E+000  -1.36880673E-001      56.50  <-- SCF
      4  -7.72872647E+003  5.45738464E+000  -1.14090110E-002      58.10  <-- SCF
      5  -7.72871938E+003  5.50304854E+000  -8.85821480E-004      59.72  <-- SCF
      6  -7.72871926E+003  5.50524886E+000  -1.47346802E-005      61.32  <-- SCF
      7  -7.72871926E+003  5.50468302E+000  -2.60834510E-007      62.62  <-- SCF
      8  -7.72871926E+003  5.50480869E+000  -4.35821114E-008      63.64  <-- SCF
      9  -7.72871926E+003  5.50486282E+000  -5.34995373E-010      64.62  <-- SCF
------------------------------------------------------------------------ <-- SCF

[...]

 *********** Symmetrised Stress Tensor ***********
 *          Cartesian components (GPa)           *
 *             x             y             z     *
 *  x    -19.182763      0.000000      0.000000  *
 *  y      0.000000    -19.182763      0.000000  *
 *  z      0.000000      0.000000    -19.182763  *
 *  Pressure:   19.1828                          *

 +------------+-------------+-------------+-----------------+ <-- min LBFGS
 |    Step    |   lambda    |   F.delta'  |    enthalpy     | <-- min LBFGS
 +------------+-------------+-------------+-----------------+ <-- min LBFGS
 |  previous  |    0.000000 |    0.854335 |    -7728.223891 | <-- min LBFGS
 | trial step |    1.000000 |    0.653681 |    -7728.582956 | <-- min LBFGS
 +------------+-------------+-------------+-----------------+ <-- min LBFGS

 LBFGS: improving iteration         1 with line minimization (lambda=  3.508382)

[...]

 +------------+-------------+-------------+-----------------+ <-- min LBFGS
 |    Step    |   lambda    |   F.delta'  |    enthalpy     | <-- min LBFGS
 +------------+-------------+-------------+-----------------+ <-- min LBFGS
 |  previous  |    0.000000 |    0.854335 |    -7728.223891 | <-- min LBFGS
 | trial step |    1.000000 |    0.653681 |    -7728.582956 | <-- min LBFGS
 |  line step |    3.508382 |    0.272103 |    -7728.568365 | <-- min LBFGS
 +------------+-------------+-------------+-----------------+ <-- min LBFGS

 LBFGS: improving iteration         1 with quad minimization (lambda=  5.297108)

[...]

 +------------+-------------+-------------+-----------------+ <-- min LBFGS
 |    Step    |   lambda    |   F.delta'  |    enthalpy     | <-- min LBFGS
 +------------+-------------+-------------+-----------------+ <-- min LBFGS
 |  previous  |    0.000000 |    0.854335 |    -7728.223891 | <-- min LBFGS
 | trial step |    1.000000 |    0.653681 |    -7728.582956 | <-- min LBFGS
 |  line step |    3.508382 |    0.272103 |    -7728.568365 | <-- min LBFGS
 |  quad step |    5.297108 |    0.014478 |    -7727.647799 | <-- min LBFGS
 +------------+-------------+-------------+-----------------+ <-- min LBFGS

 LBFGS: finished iteration     1 with enthalpy= -7.72764780E+003 eV

[...]

 LBFGS: updated estimated bulk modulus =  84.90505 GPa
 LBFGS: finished iteration     2 with enthalpy= -7.72764923E+003 eV

[...]

 LBFGS: reverting to earlier configuration

[...]

Writing analysis data to MgO.castep_bin

Writing model to MgO.check

[...]

 +-----------+-----------------+-----------------+------------+-----+ <-- LBFGS
 | Parameter |      value      |    tolerance    |    units   | OK? | <-- LBFGS
 +-----------+-----------------+-----------------+------------+-----+ <-- LBFGS
 |  dE/ion   |   1.723306E-005 |   2.000000E-005 |         eV | Yes | <-- LBFGS
 |   Smax    |   3.930884E-001 |   1.000000E-001 |        GPa | No  | <-- LBFGS
 +-----------+-----------------+-----------------+------------+-----+ <-- LBFGS

[...]

 LBFGS: updated estimated bulk modulus = 288.93298 GPa
 LBFGS: finished iteration    13 with enthalpy= -7.72751420E+003 eV

[...]

 +-----------+-----------------+-----------------+------------+-----+ <-- LBFGS
 | Parameter |      value      |    tolerance    |    units   | OK? | <-- LBFGS
 +-----------+-----------------+-----------------+------------+-----+ <-- LBFGS
 |  dE/ion   |   1.213154E-002 |   2.000000E-005 |         eV | No  | <-- LBFGS
 |   Smax    |   5.105947E-001 |   1.000000E-001 |        GPa | No  | <-- LBFGS
 +-----------+-----------------+-----------------+------------+-----+ <-- LBFGS

[...]

 LBFGS: updated estimated bulk modulus =1128.45868 GPa
 LBFGS: finished iteration    19 with enthalpy= -7.72751857E+003 eV

[...]

 LBFGS: reverting to earlier configuration

[...]

 Starting LBFGS iteration         30 ...

[...]

 +------------+-------------+-------------+-----------------+ <-- min LBFGS
 |    Step    |   lambda    |   F.delta'  |    enthalpy     | <-- min LBFGS
 +------------+-------------+-------------+-----------------+ <-- min LBFGS
 |  previous  |    0.000000 |    0.020064 |    -7727.518574 | <-- min LBFGS
 +------------+-------------+-------------+-----------------+ <-- min LBFGS

 LBFGS: starting iteration        30 with trial guess (lambda=  1.000000)

[...]

 +------------+-------------+-------------+-----------------+ <-- min LBFGS
 |    Step    |   lambda    |   F.delta'  |    enthalpy     | <-- min LBFGS
 +------------+-------------+-------------+-----------------+ <-- min LBFGS
 |  previous  |    0.000000 |    0.020064 |    -7727.518574 | <-- min LBFGS
 | trial step |    1.000000 |   -0.022514 |    -7727.615783 | <-- min LBFGS
 +------------+-------------+-------------+-----------------+ <-- min LBFGS

 LBFGS: improving iteration        30 with line minimization (lambda=  0.471227)

[...]

 +------------+-------------+-------------+-----------------+ <-- min LBFGS
 |    Step    |   lambda    |   F.delta'  |    enthalpy     | <-- min LBFGS
 +------------+-------------+-------------+-----------------+ <-- min LBFGS
 |  previous  |    0.000000 |    0.020064 |    -7727.518574 | <-- min LBFGS
 | trial step |    1.000000 |   -0.022514 |    -7727.615783 | <-- min LBFGS
 |  line step |    0.471227 |   -0.023863 |    -7727.615861 | <-- min LBFGS
 +------------+-------------+-------------+-----------------+ <-- min LBFGS

 LBFGS: improving iteration        30 with quad minimization (lambda= -0.055162)

[...]

------------------------------------------------------------------------ <-- SCF
SCF loop      Energy           Fermi           Energy gain       Timer   <-- SCF
                               energy          per atom          (sec)   <-- SCF
------------------------------------------------------------------------ <-- SCF
Initial  -7.72721553E+003  0.00000000E+000                      1132.62  <-- SCF
      1  -7.72800595E+003  2.98398588E+000   9.88021561E-002    1134.08  <-- SCF
      2  -7.72800925E+003  2.98398801E+000   4.12693815E-004    1135.37  <-- SCF
      3  -7.72800865E+003  3.03539679E+000  -7.51404865E-005    1136.85  <-- SCF
      4  -7.72800712E+003  3.01034143E+000  -1.90789866E-004    1138.42  <-- SCF
      5  -7.72800715E+003  3.01077283E+000   3.20291521E-006    1139.93  <-- SCF
      6  -7.72800714E+003  3.01050990E+000  -1.54624104E-007    1141.11  <-- SCF
      7  -7.72800714E+003  3.01060154E+000  -2.66994981E-009    1142.16  <-- SCF
      8  -7.72800714E+003  3.01063811E+000  -6.43850594E-010    1143.21  <-- SCF
------------------------------------------------------------------------ <-- SCF

Final energy, E             =  -7727.994808101     eV
Final free energy (E-TS)    =  -7728.007144419     eV
(energies not corrected for finite basis set)

NB est. 0K energy (E-0.5TS)      =  -7728.000976260     eV

[...]

 +------------+-------------+-------------+-----------------+ <-- min LBFGS
 |    Step    |   lambda    |   F.delta'  |    enthalpy     | <-- min LBFGS
 +------------+-------------+-------------+-----------------+ <-- min LBFGS
 |  previous  |    0.000000 |    0.020064 |    -7727.518574 | <-- min LBFGS
 | trial step |    1.000000 |   -0.022514 |    -7727.615783 | <-- min LBFGS
 |  line step |    0.471227 |   -0.023863 |    -7727.615861 | <-- min LBFGS
 |  quad step |   -0.055162 |    0.019949 |    -7727.518567 | <-- min LBFGS
 +------------+-------------+-------------+-----------------+ <-- min LBFGS

 LBFGS: finished iteration    30 with enthalpy= -7.72751857E+003 eV

 +-----------+-----------------+-----------------+------------+-----+ <-- LBFGS
 | Parameter |      value      |    tolerance    |    units   | OK? | <-- LBFGS
 +-----------+-----------------+-----------------+------------+-----+ <-- LBFGS
 |  dE/ion   |   8.862025E-007 |   2.000000E-005 |         eV | Yes | <-- LBFGS
 |   Smax    |   5.041713E-001 |   1.000000E-001 |        GPa | No  | <-- LBFGS
 +-----------+-----------------+-----------------+------------+-----+ <-- LBFGS

 LBFGS: WARNING - Geometry optimization failed to converge after         30 steps

 LBFGS: Final Configuration:

                                      Unit Cell
        Real Lattice(A)              Reciprocal Lattice(1/A)
     4.7793974    -0.0000000    -0.0000000        1.314639637   0.000000000   0.000000000
    -0.0000000     4.7793974    -0.0000000        0.000000000   1.314639637   0.000000000
    -0.0000000    -0.0000000     4.7793974        0.000000000   0.000000000   1.314639637

                       Lattice parameters(A)       Cell Angles
                    a =      4.779397          alpha =   90.000000
                    b =      4.779397          beta  =   90.000000
                    c =      4.779397          gamma =   90.000000

                Current cell volume =           109.174054 A**3

 LBFGS: Final Enthalpy     = -7.72751857E+003 eV
 LBFGS: Final bulk modulus =    1128.45868 GPa

  *** There were at least     1 warnings during this run ***
  *** => please check the whole of this file carefully!  ***

 ******************************** Symmetrised Forces ********************************
 *                           Cartesian components (eV/A)                            *
 *                         x                    y                    z              *
 * O               1      0.00000              0.00000              0.00000         *
 * O               2      0.00000              0.00000              0.00000         *
 * O               3      0.00000              0.00000              0.00000         *
 * O               4      0.00000              0.00000              0.00000         *
 * Mg              1      0.00000              0.00000              0.00000         *
 * Mg              2      0.00000              0.00000              0.00000         *
 * Mg              3      0.00000              0.00000              0.00000         *
 * Ca              1      0.00000              0.00000              0.00000         *

 *********** Symmetrised Stress Tensor ***********
 *          Cartesian components (GPa)           *
 *             x             y             z     *
 *  x      0.504171      0.000000      0.000000  *
 *  y      0.000000      0.504171      0.000000  *
 *  z      0.000000      0.000000      0.504171  *
 *  Pressure:   -0.5042                          *

 Pseudo atomic calculation performed for O 2s2 2p4

[...]

 Pseudo atomic calculation performed for Ca 3s2 3p6 4s2

 Converged in 24 iterations to a total energy of -1001.5497 eV

Charge spilling parameter for spin component 1 = 0.23%

            Orbital Populations
     Ion    Atom   Orbital             Charge
      O     1      S                    1.942
      O     1      Px                   1.687
      O     1      Py                   1.687
      O     1      Pz                   1.629
      O     2      S                    1.936
      O     2      Px                   1.720
      O     2      Py                   1.657
      O     2      Pz                   1.601
      O     3      S                    1.936
      O     3      Px                   1.657
      O     3      Py                   1.720
      O     3      Pz                   1.601
      O     4      S                    1.934
      O     4      Px                   1.664
      O     4      Py                   1.664
      O     4      Pz                   1.793
     Mg     1      S                    2.000
     Mg     1      Px                   2.000
     Mg     1      Py                   2.000
     Mg     1      Pz                   2.000
     Mg     1      S                    0.483
     Mg     1      Px                   0.167
     Mg     1      Py                   0.201
     Mg     1      Pz                   0.262
     Mg     2      S                    2.000
     Mg     2      Px                   2.000
     Mg     2      Py                   2.000
     Mg     2      Pz                   2.000
     Mg     2      S                    0.483
     Mg     2      Px                   0.201
     Mg     2      Py                   0.167
     Mg     2      Pz                   0.262
     Mg     3      S                    2.000
     Mg     3      Px                   2.000
     Mg     3      Py                   2.000
     Mg     3      Pz                   2.000
     Mg     3      S                    0.464
     Mg     3      Px                   0.174
     Mg     3      Py                   0.174
     Mg     3      Pz                   0.251
     Ca     1      S                    2.014
     Ca     1      Px                   1.997
     Ca     1      Py                   1.997
     Ca     1      Pz                   1.998
     Ca     1      S                    0.164
     Ca     1      Dzz                  0.166
     Ca     1      Dzy                  0.101
     Ca     1      Dzx                  0.101
     Ca     1      Dxx-yy               0.238
     Ca     1      Dxy                  0.108
                           Total:      64.000

     Atomic Populations (Mulliken)
Species          Ion     s      p      d      f     Total  Charge (e)
  O               1     1.94   5.00   0.00   0.00   6.94    -0.94
  O               2     1.94   5.03   0.00   0.00   6.96    -0.96
  O               3     1.94   5.03   0.00   0.00   6.96    -0.96
  O               4     1.94   5.03   0.00   0.00   6.96    -0.96
  Mg              1     2.48   6.62   0.00   0.00   9.10     0.90
  Mg              2     2.48   6.62   0.00   0.00   9.10     0.90
  Mg              3     2.48   6.62   0.00   0.00   9.10     0.90
  Ca              1     2.18   5.99   0.71   0.00   8.88     1.12

                 Bond                   Population      Length (A)
               O 4 -- Ca 1                   0.26        2.38970
               O 4 -- Mg 2                   0.50        2.38970
               O 4 -- Mg 1                   0.50        2.38970
               O 3 -- Ca 1                   0.26        2.38970
               O 3 -- Mg 3                   0.50        2.38970
               O 3 -- Mg 1                   0.50        2.38970
               O 2 -- Ca 1                   0.26        2.38970
               O 2 -- Mg 3                   0.50        2.38970
               O 2 -- Mg 2                   0.50        2.38970
               O 1 -- Mg 3                   0.47        2.38970
               O 1 -- Mg 2                   0.47        2.38970
               O 1 -- Mg 1                   0.47        2.38970

Writing analysis data to MgO.castep_bin

Writing model to MgO.check

 A BibTeX formatted list of references used in this run has been written to
 MgO.bib

Initialisation time =     15.64 s
Calculation time    =   1130.93 s
Finalisation time   =      0.10 s
Total time          =   1146.67 s