 Run started: Fri, 16 Oct 2020 11:28:56 +0100

 Atomic calculation performed for O: 1s2 2s2 2p4

 Converged in 60 iterations to an ae energy of -2027.926 eV

   | Pseudopotential Report - Date of generation 16-10-2020   |
   | Element: O Ionic charge:  6.00 Level of theory: LDA      |
   | Atomic Solver: Koelling-Harmon                           |
   |               Reference Electronic Structure             |
   |         Orbital         Occupation         Energy        |
   |            2s              2.000           -0.873        |
   |            2p              4.000           -0.338        |
   |                 Pseudopotential Definition               |
   |        Beta     l      e      Rc     scheme   norm       |
   |          1      0   -0.873   1.100     qc      0         |
   |          2      0    0.250   1.100     qc      0         |
   |          3      1   -0.338   1.100     qc      0         |
   |          4      1    0.250   1.100     qc      0         |
   |         loc     2    0.000   1.100     pn      0         |
   | Augmentation charge Rinner = 0.769                       |
   | Partial core correction Rc = 0.769                       |
   | "2|1.1|17|20|23|20:21(qc=8)"                             |
   |      Author: Chris J. Pickard, Cambridge University      |

 Atomic calculation performed for Mg: 1s2 2s2 2p6 3s2

[...]

   | Pseudopotential Report - Date of generation 16-10-2020   |
   | Element: Mg Ionic charge: 10.00 Level of theory: LDA     |
   | Atomic Solver: Koelling-Harmon                           |
   |               Reference Electronic Structure             |
   |         Orbital         Occupation         Energy        |
   |            2s              2.000           -2.914        |
   |            2p              6.000           -1.717        |
   |            3s              2.000           -0.176        |
   |                 Pseudopotential Definition               |
   |        Beta     l      e      Rc     scheme   norm       |
   |          1      0   -2.914   1.804     qc      0         |
   |          2      0   -0.176   1.804     qc      0         |
   |          3      0    0.250   1.804     qc      0         |
   |          4      1   -1.717   1.804     qc      0         |
   |          5      1    0.250   1.804     qc      0         |
   |          6      2    0.000   1.804     qc      0         |
   |          7      2    0.250   1.804     qc      0         |
   |         loc     3    0.000   1.804     pn      0         |
   | Augmentation charge Rinner = 1.261                       |
   | Partial core correction Rc = 1.261                       |
   | "3|1.8|7|8|9|20U:30:21:32"                               |
   |      Author: Chris J. Pickard, Cambridge University      |

 Atomic calculation performed for Ca: 1s2 2s2 2p6 3s2 3p6 4s2

 Converged in 44 iterations to an ae energy of -18468.059 eV

   | Pseudopotential Report - Date of generation 16-10-2020   |
   | Element: Ca Ionic charge: 10.00 Level of theory: LDA     |
   | Atomic Solver: Koelling-Harmon                           |
   |               Reference Electronic Structure             |
   |         Orbital         Occupation         Energy        |
   |            3s              2.000           -1.721        |
   |            3p              6.000           -1.028        |
   |            4s              2.000           -0.142        |
   |                 Pseudopotential Definition               |
   |        Beta     l      e      Rc     scheme   norm       |
   |          1      0   -1.721   2.005     qc      0         |
   |          2      0   -0.142   2.005     qc      0         |
   |          3      0    0.250   2.005     qc      0         |
   |          4      1   -1.028   2.005     qc      0         |
   |          5      1    0.250   2.005     qc      0         |
   |          6      2    0.000   2.005     qc      0         |
   |          7      2    0.250   2.005     qc      0         |
   |         loc     3    0.000   2.005     pn      0         |
   | Augmentation charge Rinner = 1.401                       |
   | Partial core correction Rc = 1.401                       |
   | "3|2.0|7|8|9|30U:40:31:32"                               |
   |      Author: Chris J. Pickard, Cambridge University      |

 Pseudo atomic calculation performed for O 2s2 2p4

 Converged in 27 iterations to a total energy of -404.4576 eV

 Pseudo atomic calculation performed for Mg 2s2 2p6 3s2

[...]

 Calculation not parallelised.

 ************************************ Title ************************************
 MgO

 ***************************** General Parameters ******************************

 output verbosity                               : normal  (1)
 write checkpoint data to                       : MgO.check
 type of calculation                            : geometry optimization
 stress calculation                             : on
 density difference calculation                 : off
 electron localisation func (ELF) calculation   : off
 Hirshfeld analysis                             : off
 unlimited duration calculation
 timing information                             : on
 write extra output files                       : on
 write final potential to formatted file        : off
 write final density to formatted file          : off
 write BibTeX reference list                    : on
 write OTFG pseudopotential files               : on
 write electrostatic potential file             : on
 write bands file                               : on
 checkpoint writing                             : both castep_bin and check files

 output         length unit                     : A
 output           mass unit                     : amu
 output           time unit                     : ps
 output         charge unit                     : e
 output           spin unit                     : hbar/2
 output         energy unit                     : eV
 output          force unit                     : eV/A
 output       velocity unit                     : A/ps
 output       pressure unit                     : GPa
 output     inv_length unit                     : 1/A
 output      frequency unit                     : cm-1
 output force constant unit                     : eV/A**2
 output         volume unit                     : A**3
 output   IR intensity unit                     : (D/A)**2/amu
 output         dipole unit                     : D
 output         efield unit                     : eV/A/e
 output        entropy unit                     : J/mol/K

 wavefunctions paging                           : none
 random number generator seed                   : randomised (112856109)
 data distribution                              : optimal for this architecture
 optimization strategy                          : maximize speed(+++)

 *********************** Exchange-Correlation Parameters ***********************

 using functional                               : Local Density Approximation
 relativistic treatment                         : Koelling-Harmon
 DFT+D: Semi-empirical dispersion correction    : off

 ************************* Pseudopotential Parameters **************************

 pseudopotential representation                 : reciprocal space
 <beta|phi> representation                      : reciprocal space
 spin-orbit coupling                            : off

 **************************** Basis Set Parameters *****************************

 plane wave basis set cut-off                   :   300.0000   eV
 size of standard grid                          :     2.0000
 size of   fine   gmax                          :    17.7472   1/A
 finite basis set correction                    : automatic
 number of sample energies                      :          3
           sample  spacing                      :     5.0000   eV

 **************************** Electronic Parameters ****************************

 number of  electrons                           :  64.00
 net charge of system                           :  0.000
 treating system as non-spin-polarized
 number of bands                                :         38

 ********************* Electronic Minimization Parameters **********************

 Method: Treating system as metallic with density mixing treatment of electrons,
         and number of  SD  steps               :          1
         and number of  CG  steps               :          4

 total energy / atom convergence tol.           : 0.1000E-06   eV
 eigen-energy convergence tolerance             : 0.2500E-07   eV
 max force / atom convergence tol.              : ignored
 convergence tolerance window                   :          3   cycles
 max. number of SCF cycles                      :         60
 number of fixed-spin iterations                :         10
 smearing scheme                                : Gaussian
 smearing width                                 : 0.2000       eV
 Fermi energy convergence tolerance             : 0.2721E-13   eV
 periodic dipole correction                     : NONE

 ************************** Density Mixing Parameters **************************

 density-mixing scheme                          : Pulay
 max. length of mixing history                  :         30
 charge density mixing amplitude                : 0.8000
 cut-off energy for mixing                      :  300.0       eV

 *********************** Population Analysis Parameters ************************

 Population analysis with cutoff                :  3.000       A
 Population analysis output                     : summary and pdos components

 ********************** Geometry Optimization Parameters ***********************

 optimization method                            : LBFGS
 max. no. of LBFGS updates                      : unbounded
 variable cell method                           : fixed basis quality
 max. number of steps                           :         30
 estimated bulk modulus                         :  500.0       GPa
 estimated <frequency>                          :  1668.       cm-1
 geom line minimiser                            : on
 with line minimiser tolerance                  :     0.4000
 total energy convergence tolerance             : 0.2000E-04   eV/atom
        max ionic |force| tolerance             : 0.5000E-01   eV/A
 max ionic |displacement| tolerance             : 0.1000E-02   A
   max |stress component| tolerance             : 0.1000       GPa
 convergence tolerance window                   :          2   steps
 backup results every                           :          5   steps
 write geom trajectory file                     : on

                                      Unit Cell
        Real Lattice(A)                      Reciprocal Lattice(1/A)
     4.3600000     0.0000000     0.0000000        1.441097548   0.000000000   0.000000000
     0.0000000     4.3600000     0.0000000        0.000000000   1.441097548   0.000000000
     0.0000000     0.0000000     4.3600000        0.000000000   0.000000000   1.441097548

                       Lattice parameters(A)       Cell Angles
                    a =      4.360000          alpha =   90.000000
[...]
Initial  -7.02869881E+003  0.00000000E+000                        62.85  <-- SCF
      1  -7.04873663E+003  5.58335081E+000   2.50472802E+000      65.00  <-- SCF
      2  -7.04889154E+003  5.58299092E+000   1.93629259E-002      67.59  <-- SCF
      3  -7.04579790E+003  6.38432281E+000  -3.86704162E-001      69.95  <-- SCF
      4  -7.04560509E+003  6.04738779E+000  -2.41014192E-002      72.27  <-- SCF
      5  -7.04558348E+003  6.12932180E+000  -2.70132844E-003      74.69  <-- SCF
      6  -7.04558351E+003  6.13209296E+000   3.52073224E-006      77.04  <-- SCF
      7  -7.04558350E+003  6.13122919E+000  -8.49976751E-007      79.09  <-- SCF
      8  -7.04558350E+003  6.13118923E+000  -1.80293634E-008      80.64  <-- SCF
      9  -7.04558350E+003  6.13111191E+000  -1.03808824E-009      82.16  <-- SCF
------------------------------------------------------------------------ <-- SCF

[...]

 *********** Symmetrised Stress Tensor ***********
 *          Cartesian components (GPa)           *
 *             x             y             z     *
 *  x    -28.898239      0.000000      0.000000  *
 *  y      0.000000    -28.872261      0.000000  *
 *  z      0.000000      0.000000    -28.872261  *
 *  Pressure:   28.8809                          *

 +------------+-------------+-------------+-----------------+ <-- min LBFGS
 |    Step    |   lambda    |   F.delta'  |    enthalpy     | <-- min LBFGS
 +------------+-------------+-------------+-----------------+ <-- min LBFGS
 |  previous  |    0.000000 |    1.427538 |    -7044.567177 | <-- min LBFGS
 | trial step |    1.000000 |    1.006743 |    -7046.085552 | <-- min LBFGS
 +------------+-------------+-------------+-----------------+ <-- min LBFGS

 LBFGS: improving iteration         1 with line minimization (lambda=  2.097528)

[...]

 +------------+-------------+-------------+-----------------+ <-- min LBFGS
 |    Step    |   lambda    |   F.delta'  |    enthalpy     | <-- min LBFGS
 +------------+-------------+-------------+-----------------+ <-- min LBFGS
 |  previous  |    0.000000 |    1.427538 |    -7044.567177 | <-- min LBFGS
 | trial step |    1.000000 |    1.006743 |    -7046.085552 | <-- min LBFGS
 |  line step |    2.097528 |    0.615586 |    -7046.356247 | <-- min LBFGS
 +------------+-------------+-------------+-----------------+ <-- min LBFGS

 LBFGS: improving iteration         1 with quad minimization (lambda=  3.824770)

[...]

 +------------+-------------+-------------+-----------------+ <-- min LBFGS
 |    Step    |   lambda    |   F.delta'  |    enthalpy     | <-- min LBFGS
 +------------+-------------+-------------+-----------------+ <-- min LBFGS
 |  previous  |    0.000000 |    1.427538 |    -7044.567177 | <-- min LBFGS
 | trial step |    1.000000 |    1.006743 |    -7046.085552 | <-- min LBFGS
 |  line step |    2.097528 |    0.615586 |    -7046.356247 | <-- min LBFGS
 |  quad step |    3.824770 |    0.186780 |    -7045.521460 | <-- min LBFGS
 +------------+-------------+-------------+-----------------+ <-- min LBFGS

 LBFGS: finished iteration     1 with enthalpy= -7.04552146E+003 eV

[...]

 WARNING in geom_xvec_to_mdl - large cell change detected
                             - consider your initial cell

[...]

Writing analysis data to MgO.castep_bin

Writing model to MgO.check

[...]

 LBFGS: updated estimated bulk modulus = 201.37678 GPa
 LBFGS: finished iteration     6 with enthalpy= -7.04448826E+003 eV

 +-----------+-----------------+-----------------+------------+-----+ <-- LBFGS
 | Parameter |      value      |    tolerance    |    units   | OK? | <-- LBFGS
 +-----------+-----------------+-----------------+------------+-----+ <-- LBFGS
 |  dE/ion   |   7.703369E-007 |   2.000000E-005 |         eV | Yes | <-- LBFGS
 |   Smax    |   3.489793E-001 |   1.000000E-001 |        GPa | No  | <-- LBFGS
 +-----------+-----------------+-----------------+------------+-----+ <-- LBFGS

[...]

 LBFGS: updated estimated bulk modulus =1251.92614 GPa
 LBFGS: finished iteration     8 with enthalpy= -7.04454827E+003 eV

 +-----------+-----------------+-----------------+------------+-----+ <-- LBFGS
 | Parameter |      value      |    tolerance    |    units   | OK? | <-- LBFGS
 +-----------+-----------------+-----------------+------------+-----+ <-- LBFGS
 |  dE/ion   |   1.587231E-006 |   2.000000E-005 |         eV | Yes | <-- LBFGS
 |   Smax    |   3.782725E-001 |   1.000000E-001 |        GPa | No  | <-- LBFGS
 +-----------+-----------------+-----------------+------------+-----+ <-- LBFGS

[...]

 LBFGS: reverting to earlier configuration

[...]

 LBFGS: improving iteration        13 with quad minimization (lambda=-28.717269)

[...]

 LBFGS: updated estimated bulk modulus =1946.54791 GPa
 LBFGS: finished iteration    13 with enthalpy= -7.04455777E+003 eV

[...]

 LBFGS: improving iteration        14 with line minimization (lambda=-38.728612)

[...]

 LBFGS: improving iteration        17 with quad minimization (lambda=  0.177009)

[...]

 +-----------+-----------------+-----------------+------------+-----+ <-- LBFGS
 | Parameter |      value      |    tolerance    |    units   | OK? | <-- LBFGS
 +-----------+-----------------+-----------------+------------+-----+ <-- LBFGS
 |  dE/ion   |   2.440844E-004 |   2.000000E-005 |         eV | No  | <-- LBFGS
 |   Smax    |   1.628211E-001 |   1.000000E-001 |        GPa | No  | <-- LBFGS
 +-----------+-----------------+-----------------+------------+-----+ <-- LBFGS

[...]

 LBFGS: improving iteration        18 with line minimization (lambda=  2.831584)

[...]

 +------------+-------------+-------------+-----------------+ <-- min LBFGS
 |    Step    |   lambda    |   F.delta'  |    enthalpy     | <-- min LBFGS
 +------------+-------------+-------------+-----------------+ <-- min LBFGS
 |  previous  |    0.000000 |    0.004705 |    -7044.442863 | <-- min LBFGS
 | trial step |    1.000000 |    0.003044 |    -7044.449950 | <-- min LBFGS
 |  line step |    2.831584 |    0.003127 |    -7044.449957 | <-- min LBFGS
 +------------+-------------+-------------+-----------------+ <-- min LBFGS

 LBFGS: improving iteration        18 with quad minimization (lambda=-65.684490)

[...]

 +------------+-------------+-------------+-----------------+ <-- min LBFGS
 |    Step    |   lambda    |   F.delta'  |    enthalpy     | <-- min LBFGS
 +------------+-------------+-------------+-----------------+ <-- min LBFGS
 |  previous  |    0.000000 |    0.004705 |    -7044.442863 | <-- min LBFGS
 | trial step |    1.000000 |    0.003044 |    -7044.449950 | <-- min LBFGS
 |  line step |    2.831584 |    0.003127 |    -7044.449957 | <-- min LBFGS
 |  quad step |  -65.684490 |    0.006822 |    -7044.441775 | <-- min LBFGS
 +------------+-------------+-------------+-----------------+ <-- min LBFGS

 LBFGS: reverting to earlier configuration

[...]

 +-----------+-----------------+-----------------+------------+-----+ <-- LBFGS
 | Parameter |      value      |    tolerance    |    units   | OK? | <-- LBFGS
 +-----------+-----------------+-----------------+------------+-----+ <-- LBFGS
 |  dE/ion   |   8.859775E-004 |   2.000000E-005 |         eV | No  | <-- LBFGS
 |   Smax    |   9.766041E-002 |   1.000000E-001 |        GPa | Yes | <-- LBFGS
 +-----------+-----------------+-----------------+------------+-----+ <-- LBFGS

 Starting LBFGS iteration         19 ...

 +------------+-------------+-------------+-----------------+ <-- min LBFGS
 |    Step    |   lambda    |   F.delta'  |    enthalpy     | <-- min LBFGS
 +------------+-------------+-------------+-----------------+ <-- min LBFGS
 |  previous  |    0.000000 |    0.003036 |    -7044.449950 | <-- min LBFGS
 +------------+-------------+-------------+-----------------+ <-- min LBFGS

 LBFGS: starting iteration        19 with trial guess (lambda=  1.000000)

[...]

------------------------------------------------------------------------ <-- SCF
SCF loop      Energy           Fermi           Energy gain       Timer   <-- SCF
                               energy          per atom          (sec)   <-- SCF
------------------------------------------------------------------------ <-- SCF
Initial  -7.04411294E+003  0.00000000E+000                      1002.74  <-- SCF
      1  -7.04412434E+003  3.38674647E+000   1.42510647E-003    1005.05  <-- SCF
      2  -7.04412434E+003  3.38674647E+000   1.17420560E-008    1006.66  <-- SCF
      3  -7.04412434E+003  3.38671974E+000  -2.53081814E-007    1008.29  <-- SCF
      4  -7.04412434E+003  3.38677285E+000  -9.99979245E-009    1009.93  <-- SCF
      5  -7.04412434E+003  3.38677890E+000  -1.25019157E-009    1011.61  <-- SCF
------------------------------------------------------------------------ <-- SCF

Final energy, E             =  -7044.112948316     eV
Final free energy (E-TS)    =  -7044.124339702     eV
(energies not corrected for finite basis set)

NB est. 0K energy (E-0.5TS)      =  -7044.118644009     eV

[...]

 +------------+-------------+-------------+-----------------+ <-- min LBFGS
 |    Step    |   lambda    |   F.delta'  |    enthalpy     | <-- min LBFGS
 +------------+-------------+-------------+-----------------+ <-- min LBFGS
 |  previous  |    0.000000 |    0.003036 |    -7044.449950 | <-- min LBFGS
 | trial step |    1.000000 |    0.003150 |    -7044.449958 | <-- min LBFGS
 +------------+-------------+-------------+-----------------+ <-- min LBFGS

 LBFGS: finished iteration    19 with enthalpy= -7.04444996E+003 eV

 +-----------+-----------------+-----------------+------------+-----+ <-- LBFGS
 | Parameter |      value      |    tolerance    |    units   | OK? | <-- LBFGS
 +-----------+-----------------+-----------------+------------+-----+ <-- LBFGS
 |  dE/ion   |   9.377510E-007 |   2.000000E-005 |         eV | Yes | <-- LBFGS
 |   Smax    |   9.836849E-002 |   1.000000E-001 |        GPa | Yes | <-- LBFGS
 +-----------+-----------------+-----------------+------------+-----+ <-- LBFGS

 LBFGS: Geometry optimization completed successfully.

 LBFGS: Final Configuration:

                                      Unit Cell
        Real Lattice(A)              Reciprocal Lattice(1/A)
     4.9781280    -0.0000000    -0.0000000        1.262158252   0.000000000   0.000000000
    -0.0000000     5.0024566    -0.0000000        0.000000000   1.256019956   0.000000000
    -0.0000000    -0.0000000     5.0024566        0.000000000   0.000000000   1.256019956

                       Lattice parameters(A)       Cell Angles
                    a =      4.978128          alpha =   90.000000
                    b =      5.002457          beta  =   90.000000
                    c =      5.002457          gamma =   90.000000

                Current cell volume =           124.575522 A**3

 LBFGS: Final Enthalpy     = -7.04444996E+003 eV
 LBFGS: Final bulk modulus =     717.33548 GPa

  *** There were at least     1 warnings during this run ***
  *** => please check the whole of this file carefully!  ***

 ******************************** Symmetrised Forces ********************************
 *                           Cartesian components (eV/A)                            *
 *                         x                    y                    z              *
 * O               1      0.00000              0.00000              0.00000         *
 * O               2      0.00000              0.00000              0.00000         *
 * O               3      0.00000              0.00000              0.00000         *
 * O               4      0.00000              0.00000              0.00000         *
 * Mg              1      0.00000              0.00000              0.00000         *
 * Mg              2      0.00000              0.00000              0.00000         *
 * Ca              1      0.00000              0.00000              0.00000         *
 * Ca              2      0.00000              0.00000              0.00000         *

 *********** Symmetrised Stress Tensor ***********
 *          Cartesian components (GPa)           *
 *             x             y             z     *
 *  x     -0.098368     -0.000000      0.000000  *
 *  y     -0.000000      0.056195      0.000000  *
 *  z      0.000000      0.000000      0.056195  *
 *  Pressure:   -0.0047                          *

 Pseudo atomic calculation performed for O 2s2 2p4

[...]

 Pseudo atomic calculation performed for Ca 3s2 3p6 4s2

 Converged in 24 iterations to a total energy of -1001.5497 eV

Charge spilling parameter for spin component 1 = 0.25%

            Orbital Populations
     Ion    Atom   Orbital             Charge
      O     1      S                    1.949
      O     1      Px                   1.755
      O     1      Py                   1.627
      O     1      Pz                   1.641
      O     2      S                    1.949
      O     2      Px                   1.755
      O     2      Py                   1.627
      O     2      Pz                   1.641
      O     3      S                    1.944
      O     3      Px                   1.614
      O     3      Py                   1.679
      O     3      Pz                   1.765
      O     4      S                    1.944
      O     4      Px                   1.614
      O     4      Py                   1.679
      O     4      Pz                   1.765
     Mg     1      S                    2.000
     Mg     1      Px                   2.000
     Mg     1      Py                   2.000
     Mg     1      Pz                   2.000
     Mg     1      S                    0.509
     Mg     1      Px                   0.239
     Mg     1      Py                   0.162
     Mg     1      Pz                   0.259
     Mg     2      S                    2.000
     Mg     2      Px                   2.000
     Mg     2      Py                   2.000
     Mg     2      Pz                   2.000
     Mg     2      S                    0.509
     Mg     2      Px                   0.239
     Mg     2      Py                   0.162
     Mg     2      Pz                   0.259
     Ca     1      S                    2.007
     Ca     1      Px                   1.998
     Ca     1      Py                   1.997
     Ca     1      Pz                   1.999
     Ca     1      S                    0.192
     Ca     1      Dzz                  0.156
     Ca     1      Dzy                  0.111
     Ca     1      Dzx                  0.079
     Ca     1      Dxx-yy               0.215
     Ca     1      Dxy                  0.104
     Ca     2      S                    2.007
     Ca     2      Px                   1.998
     Ca     2      Py                   1.997
     Ca     2      Pz                   1.999
     Ca     2      S                    0.192
     Ca     2      Dzz                  0.156
     Ca     2      Dzy                  0.111
     Ca     2      Dzx                  0.079
     Ca     2      Dxx-yy               0.215
     Ca     2      Dxy                  0.104
                           Total:      64.000

     Atomic Populations (Mulliken)
Species          Ion     s      p      d      f     Total  Charge (e)
  O               1     1.95   5.02   0.00   0.00   6.97    -0.97
  O               2     1.95   5.02   0.00   0.00   6.97    -0.97
  O               3     1.94   5.06   0.00   0.00   7.00    -1.00
  O               4     1.94   5.06   0.00   0.00   7.00    -1.00
  Mg              1     2.51   6.66   0.00   0.00   9.17     0.83
  Mg              2     2.51   6.66   0.00   0.00   9.17     0.83
  Ca              1     2.20   5.99   0.67   0.00   8.86     1.14
  Ca              2     2.20   5.99   0.67   0.00   8.86     1.14

                 Bond                   Population      Length (A)
               O 4 -- Mg 1                   0.48        2.48906
               O 3 -- Mg 2                   0.48        2.48906
               O 2 -- Ca 1                   0.25        2.48906
               O 1 -- Ca 2                   0.25        2.48906
               O 4 -- Ca 2                   0.27        2.50123
               O 4 -- Ca 1                   0.27        2.50123
               O 3 -- Ca 2                   0.27        2.50123
               O 3 -- Ca 1                   0.27        2.50123
               O 2 -- Mg 2                   0.44        2.50123
               O 2 -- Mg 1                   0.44        2.50123
               O 1 -- Mg 2                   0.44        2.50123
               O 1 -- Mg 1                   0.44        2.50123

Writing analysis data to MgO.castep_bin

Writing model to MgO.check

 A BibTeX formatted list of references used in this run has been written to
 MgO.bib

Initialisation time =     15.51 s
Calculation time    =   1000.46 s
Finalisation time   =      0.13 s
Total time          =   1016.10 s