 Run started: Fri, 16 Oct 2020 12:28:47 +0100

 Atomic calculation performed for O: 1s2 2s2 2p4

 Converged in 60 iterations to an ae energy of -2027.926 eV

   | Pseudopotential Report - Date of generation 16-10-2020   |
   | Element: O Ionic charge:  6.00 Level of theory: LDA      |
   | Atomic Solver: Koelling-Harmon                           |
   |               Reference Electronic Structure             |
   |         Orbital         Occupation         Energy        |
   |            2s              2.000           -0.873        |
   |            2p              4.000           -0.338        |
   |                 Pseudopotential Definition               |
   |        Beta     l      e      Rc     scheme   norm       |
   |          1      0   -0.873   1.100     qc      0         |
   |          2      0    0.250   1.100     qc      0         |
   |          3      1   -0.338   1.100     qc      0         |
   |          4      1    0.250   1.100     qc      0         |
   |         loc     2    0.000   1.100     pn      0         |
   | Augmentation charge Rinner = 0.769                       |
   | Partial core correction Rc = 0.769                       |
   | "2|1.1|17|20|23|20:21(qc=8)"                             |
   |      Author: Chris J. Pickard, Cambridge University      |

 Atomic calculation performed for Ca: 1s2 2s2 2p6 3s2 3p6 4s2

 Converged in 44 iterations to an ae energy of -18468.059 eV

   | Pseudopotential Report - Date of generation 16-10-2020   |
   | Element: Ca Ionic charge: 10.00 Level of theory: LDA     |
   | Atomic Solver: Koelling-Harmon                           |
   |               Reference Electronic Structure             |
   |         Orbital         Occupation         Energy        |
   |            3s              2.000           -1.721        |
   |            3p              6.000           -1.028        |
   |            4s              2.000           -0.142        |
   |                 Pseudopotential Definition               |
   |        Beta     l      e      Rc     scheme   norm       |
   |          1      0   -1.721   2.005     qc      0         |
   |          2      0   -0.142   2.005     qc      0         |
   |          3      0    0.250   2.005     qc      0         |
   |          4      1   -1.028   2.005     qc      0         |
   |          5      1    0.250   2.005     qc      0         |
   |          6      2    0.000   2.005     qc      0         |
   |          7      2    0.250   2.005     qc      0         |
   |         loc     3    0.000   2.005     pn      0         |
   | Augmentation charge Rinner = 1.401                       |
   | Partial core correction Rc = 1.401                       |
   | "3|2.0|7|8|9|30U:40:31:32"                               |
   |      Author: Chris J. Pickard, Cambridge University      |

 Pseudo atomic calculation performed for O 2s2 2p4

 Converged in 27 iterations to a total energy of -404.4576 eV

 Pseudo atomic calculation performed for Ca 3s2 3p6 4s2

[...]

 Calculation not parallelised.

 ************************************ Title ************************************
 MgO

 ***************************** General Parameters ******************************

 output verbosity                               : normal  (1)
 write checkpoint data to                       : MgO.check
 type of calculation                            : geometry optimization
 stress calculation                             : on
 density difference calculation                 : off
 electron localisation func (ELF) calculation   : off
 Hirshfeld analysis                             : off
 unlimited duration calculation
 timing information                             : on
 write extra output files                       : on
 write final potential to formatted file        : off
 write final density to formatted file          : off
 write BibTeX reference list                    : on
 write OTFG pseudopotential files               : on
 write electrostatic potential file             : on
 write bands file                               : on
 checkpoint writing                             : both castep_bin and check files

 output         length unit                     : A
 output           mass unit                     : amu
 output           time unit                     : ps
 output         charge unit                     : e
 output           spin unit                     : hbar/2
 output         energy unit                     : eV
 output          force unit                     : eV/A
 output       velocity unit                     : A/ps
 output       pressure unit                     : GPa
 output     inv_length unit                     : 1/A
 output      frequency unit                     : cm-1
 output force constant unit                     : eV/A**2
 output         volume unit                     : A**3
 output   IR intensity unit                     : (D/A)**2/amu
 output         dipole unit                     : D
 output         efield unit                     : eV/A/e
 output        entropy unit                     : J/mol/K

 wavefunctions paging                           : none
 random number generator seed                   : randomised (122848195)
 data distribution                              : optimal for this architecture
 optimization strategy                          : maximize speed(+++)

 *********************** Exchange-Correlation Parameters ***********************

 using functional                               : Local Density Approximation
 relativistic treatment                         : Koelling-Harmon
 DFT+D: Semi-empirical dispersion correction    : off

 ************************* Pseudopotential Parameters **************************

 pseudopotential representation                 : reciprocal space
 <beta|phi> representation                      : reciprocal space
 spin-orbit coupling                            : off

 **************************** Basis Set Parameters *****************************

 plane wave basis set cut-off                   :   300.0000   eV
 size of standard grid                          :     2.0000
 size of   fine   gmax                          :    17.7472   1/A
 finite basis set correction                    : automatic
 number of sample energies                      :          3
           sample  spacing                      :     5.0000   eV

 **************************** Electronic Parameters ****************************

 number of  electrons                           :  64.00
 net charge of system                           :  0.000
 treating system as non-spin-polarized
 number of bands                                :         38

 ********************* Electronic Minimization Parameters **********************

 Method: Treating system as metallic with density mixing treatment of electrons,
         and number of  SD  steps               :          1
         and number of  CG  steps               :          4

 total energy / atom convergence tol.           : 0.1000E-06   eV
 eigen-energy convergence tolerance             : 0.2500E-07   eV
 max force / atom convergence tol.              : ignored
 convergence tolerance window                   :          3   cycles
 max. number of SCF cycles                      :         60
 number of fixed-spin iterations                :         10
 smearing scheme                                : Gaussian
 smearing width                                 : 0.2000       eV
 Fermi energy convergence tolerance             : 0.2721E-13   eV
 periodic dipole correction                     : NONE

 ************************** Density Mixing Parameters **************************

 density-mixing scheme                          : Pulay
 max. length of mixing history                  :         30
 charge density mixing amplitude                : 0.8000
 cut-off energy for mixing                      :  300.0       eV

 *********************** Population Analysis Parameters ************************

 Population analysis with cutoff                :  3.000       A
 Population analysis output                     : summary and pdos components

 ********************** Geometry Optimization Parameters ***********************

 optimization method                            : LBFGS
 max. no. of LBFGS updates                      : unbounded
 variable cell method                           : fixed basis quality
 max. number of steps                           :         30
 estimated bulk modulus                         :  500.0       GPa
 estimated <frequency>                          :  1668.       cm-1
 geom line minimiser                            : on
 with line minimiser tolerance                  :     0.4000
 total energy convergence tolerance             : 0.2000E-04   eV/atom
        max ionic |force| tolerance             : 0.5000E-01   eV/A
 max ionic |displacement| tolerance             : 0.1000E-02   A
   max |stress component| tolerance             : 0.1000       GPa
 convergence tolerance window                   :          2   steps
 backup results every                           :          5   steps
 write geom trajectory file                     : on

                                      Unit Cell
        Real Lattice(A)                      Reciprocal Lattice(1/A)
     4.3600000     0.0000000     0.0000000        1.441097548   0.000000000   0.000000000
     0.0000000     4.3600000     0.0000000        0.000000000   1.441097548   0.000000000
     0.0000000     0.0000000     4.3600000        0.000000000   0.000000000   1.441097548

                       Lattice parameters(A)       Cell Angles
                    a =      4.360000          alpha =   90.000000
                    b =      4.360000          beta  =   90.000000
                    c =      4.360000          gamma =   90.000000

                       Current cell volume =            82.881856       A**3
                                   density =             2.706378   AMU/A**3
                                           =             4.494046     g/cm^3

                                     Cell Contents
                         Total number of ions in cell =    8
                      Total number of species in cell =    2
                        Max number of any one species =    4

            x  Element    Atom        Fractional coordinates of atoms  x
            x            Number           u          v          w      x
            x  O            1         0.500000   0.500000   0.500000   x
            x  O            2         0.500000   0.000000   0.000000   x
            x  O            3         0.000000   0.500000   0.000000   x
            x  O            4         0.000000   0.000000   0.500000   x
            x  Ca           1         0.000000   0.000000   0.000000   x
            x  Ca           2         0.000000   0.500000   0.500000   x
            x  Ca           3         0.500000   0.000000   0.500000   x
            x  Ca           4         0.500000   0.500000   0.000000   x

                         No user defined ionic velocities

                                   Details of Species

[...]
 LBFGS: finished iteration     0 with enthalpy= -5.67732491E+003 eV

 +-----------+-----------------+-----------------+------------+-----+ <-- LBFGS
 | Parameter |      value      |    tolerance    |    units   | OK? | <-- LBFGS
 +-----------+-----------------+-----------------+------------+-----+ <-- LBFGS
 |  dE/ion   |   0.000000E+000 |   2.000000E-005 |         eV | No  | <-- LBFGS
 |   Smax    |   7.754634E+001 |   1.000000E-001 |        GPa | No  | <-- LBFGS
 +-----------+-----------------+-----------------+------------+-----+ <-- LBFGS

 Starting LBFGS iteration          1 ...

 +------------+-------------+-------------+-----------------+ <-- min LBFGS
 |    Step    |   lambda    |   F.delta'  |    enthalpy     | <-- min LBFGS
 +------------+-------------+-------------+-----------------+ <-- min LBFGS
 |  previous  |    0.000000 |    2.553409 |    -5677.324907 | <-- min LBFGS
 +------------+-------------+-------------+-----------------+ <-- min LBFGS

 LBFGS: starting iteration         1 with trial guess (lambda=  1.000000)

[...]

                Current cell volume =            96.412217 A**3

------------------------------------------------------------------------ <-- SCF
SCF loop      Energy           Fermi           Energy gain       Timer   <-- SCF
                               energy          per atom          (sec)   <-- SCF
------------------------------------------------------------------------ <-- SCF
Initial  -5.64522876E+003  0.00000000E+000                        40.02  <-- SCF
      1  -5.69243474E+003  6.01396385E+000   5.90074720E+000      41.36  <-- SCF
      2  -5.69283334E+003  6.01428743E+000   4.98254297E-002      42.72  <-- SCF
      3  -5.68291086E+003  7.93339485E+000  -1.24031029E+000      44.22  <-- SCF
      4  -5.68242319E+003  7.14923248E+000  -6.09580367E-002      45.77  <-- SCF
      5  -5.68233970E+003  7.41225309E+000  -1.04362395E-002      47.30  <-- SCF
      6  -5.68234049E+003  7.41647900E+000   9.82053515E-005      48.86  <-- SCF
      7  -5.68234043E+003  7.41215103E+000  -7.52502557E-006      50.40  <-- SCF
      8  -5.68234043E+003  7.41144076E+000   7.10066664E-008      51.57  <-- SCF
      9  -5.68234043E+003  7.41193139E+000  -3.03116352E-008      52.53  <-- SCF
------------------------------------------------------------------------ <-- SCF

[...]

 *********** Symmetrised Stress Tensor ***********
 *          Cartesian components (GPa)           *
 *             x             y             z     *
 *  x    -38.554140      0.000000     -0.000000  *
 *  y      0.000000    -38.554140     -0.000000  *
 *  z     -0.000000     -0.000000    -38.554140  *
 *  Pressure:   38.5541                          *

 +------------+-------------+-------------+-----------------+ <-- min LBFGS
 |    Step    |   lambda    |   F.delta'  |    enthalpy     | <-- min LBFGS
 +------------+-------------+-------------+-----------------+ <-- min LBFGS
 |  previous  |    0.000000 |    2.553409 |    -5677.324907 | <-- min LBFGS
 | trial step |    1.000000 |    1.404144 |    -5681.708125 | <-- min LBFGS
 +------------+-------------+-------------+-----------------+ <-- min LBFGS

 LBFGS: finished iteration     1 with enthalpy= -5.68170813E+003 eV

[...]

 LBFGS: improving iteration         2 with line minimization (lambda=  1.441166)

[...]

 +------------+-------------+-------------+-----------------+ <-- min LBFGS
 |    Step    |   lambda    |   F.delta'  |    enthalpy     | <-- min LBFGS
 +------------+-------------+-------------+-----------------+ <-- min LBFGS
 |  previous  |    0.000000 |    1.404144 |    -5681.708125 | <-- min LBFGS
 | trial step |    0.960777 |    0.624686 |    -5682.629627 | <-- min LBFGS
 |  line step |    1.441166 |    0.385335 |    -5682.404990 | <-- min LBFGS
 +------------+-------------+-------------+-----------------+ <-- min LBFGS

[...]

 WARNING in geom_xvec_to_mdl - large cell change detected
                             - consider your initial cell

[...]

 LBFGS: reverting to earlier configuration

[...]

Writing analysis data to MgO.castep_bin

Writing model to MgO.check

[...]

 LBFGS: improving iteration         5 with quad minimization (lambda=  0.145909)

[...]

 +------------+-------------+-------------+-----------------+ <-- min LBFGS
 |    Step    |   lambda    |   F.delta'  |    enthalpy     | <-- min LBFGS
 +------------+-------------+-------------+-----------------+ <-- min LBFGS
 |  previous  |    0.000000 |    0.052096 |    -5681.710749 | <-- min LBFGS
 | trial step |    1.000000 |   -0.076039 |    -5681.288528 | <-- min LBFGS
 |  line step |    0.406571 |   -0.037150 |    -5681.559849 | <-- min LBFGS
 |  quad step |    0.145909 |    0.019343 |    -5681.642774 | <-- min LBFGS
 +------------+-------------+-------------+-----------------+ <-- min LBFGS

[...]

 LBFGS: improving iteration         6 with line minimization (lambda= -7.780224)

[...]

 +------------+-------------+-------------+-----------------+ <-- min LBFGS
 |    Step    |   lambda    |   F.delta'  |    enthalpy     | <-- min LBFGS
 +------------+-------------+-------------+-----------------+ <-- min LBFGS
 |  previous  |    0.000000 |    0.019343 |    -5681.642774 | <-- min LBFGS
 | trial step |    1.000000 |    0.021829 |    -5681.670712 | <-- min LBFGS
 |  line step |   -7.780224 |    0.058026 |    -5681.826777 | <-- min LBFGS
 +------------+-------------+-------------+-----------------+ <-- min LBFGS

 LBFGS: improving iteration         6 with quad minimization (lambda=  4.980396)

[...]

 +------------+-------------+-------------+-----------------+ <-- min LBFGS
 |    Step    |   lambda    |   F.delta'  |    enthalpy     | <-- min LBFGS
 +------------+-------------+-------------+-----------------+ <-- min LBFGS
 |  previous  |    0.000000 |    0.019343 |    -5681.642774 | <-- min LBFGS
 | trial step |    1.000000 |    0.021829 |    -5681.670712 | <-- min LBFGS
 |  line step |   -7.780224 |    0.058026 |    -5681.826777 | <-- min LBFGS
 |  quad step |    4.980396 |   -0.025651 |    -5681.532732 | <-- min LBFGS
 +------------+-------------+-------------+-----------------+ <-- min LBFGS

[...]

 +-----------+-----------------+-----------------+------------+-----+ <-- LBFGS
 | Parameter |      value      |    tolerance    |    units   | OK? | <-- LBFGS
 +-----------+-----------------+-----------------+------------+-----+ <-- LBFGS
 |  dE/ion   |   1.375519E-002 |   2.000000E-005 |         eV | No  | <-- LBFGS
 |   Smax    |   5.444022E-001 |   1.000000E-001 |        GPa | No  | <-- LBFGS
 +-----------+-----------------+-----------------+------------+-----+ <-- LBFGS

[...]

 +-----------+-----------------+-----------------+------------+-----+ <-- LBFGS
 | Parameter |      value      |    tolerance    |    units   | OK? | <-- LBFGS
 +-----------+-----------------+-----------------+------------+-----+ <-- LBFGS
 |  dE/ion   |   6.746243E-003 |   2.000000E-005 |         eV | No  | <-- LBFGS
 |   Smax    |   7.791249E-003 |   1.000000E-001 |        GPa | Yes | <-- LBFGS
 +-----------+-----------------+-----------------+------------+-----+ <-- LBFGS

 Starting LBFGS iteration          8 ...

 +------------+-------------+-------------+-----------------+ <-- min LBFGS
 |    Step    |   lambda    |   F.delta'  |    enthalpy     | <-- min LBFGS
 +------------+-------------+-------------+-----------------+ <-- min LBFGS
 |  previous  |    0.000000 |    0.000365 |    -5681.586702 | <-- min LBFGS
 +------------+-------------+-------------+-----------------+ <-- min LBFGS

 LBFGS: starting iteration         8 with trial guess (lambda=  1.000000)

[...]

------------------------------------------------------------------------ <-- SCF
SCF loop      Energy           Fermi           Energy gain       Timer   <-- SCF
                               energy          per atom          (sec)   <-- SCF
------------------------------------------------------------------------ <-- SCF
Initial  -5.68120162E+003  0.00000000E+000                       269.36  <-- SCF
      1  -5.68120163E+003  3.88693524E+000   1.94868913E-006     270.96  <-- SCF
      2  -5.68120163E+003  3.88693524E+000   1.30656234E-008     272.07  <-- SCF
      3  -5.68120163E+003  3.88733791E+000  -7.02715069E-007     273.59  <-- SCF
      4  -5.68120163E+003  3.88719783E+000  -1.63611523E-009     274.68  <-- SCF
      5  -5.68120163E+003  3.88722440E+000   1.25985900E-009     275.77  <-- SCF
------------------------------------------------------------------------ <-- SCF

Final energy, E             =  -5681.201627731     eV
Final free energy (E-TS)    =  -5681.201627792     eV
(energies not corrected for finite basis set)

NB est. 0K energy (E-0.5TS)      =  -5681.201627761     eV

[...]

 +------------+-------------+-------------+-----------------+ <-- min LBFGS
 |    Step    |   lambda    |   F.delta'  |    enthalpy     | <-- min LBFGS
 +------------+-------------+-------------+-----------------+ <-- min LBFGS
 |  previous  |    0.000000 |    0.000365 |    -5681.586702 | <-- min LBFGS
 | trial step |    1.000000 |    0.001024 |    -5681.586704 | <-- min LBFGS
 +------------+-------------+-------------+-----------------+ <-- min LBFGS

 LBFGS: finished iteration     8 with enthalpy= -5.68158670E+003 eV

 +-----------+-----------------+-----------------+------------+-----+ <-- LBFGS
 | Parameter |      value      |    tolerance    |    units   | OK? | <-- LBFGS
 +-----------+-----------------+-----------------+------------+-----+ <-- LBFGS
 |  dE/ion   |   2.088291E-007 |   2.000000E-005 |         eV | Yes | <-- LBFGS
 |   Smax    |   2.184667E-002 |   1.000000E-001 |        GPa | Yes | <-- LBFGS
 +-----------+-----------------+-----------------+------------+-----+ <-- LBFGS

 LBFGS: Geometry optimization completed successfully.

 LBFGS: Final Configuration:

                                      Unit Cell
        Real Lattice(A)              Reciprocal Lattice(1/A)
     5.2009934     0.0000000    -0.0000000        1.208074067  -0.000000000   0.000000000
     0.0000000     5.2009934    -0.0000000       -0.000000000   1.208074067   0.000000000
    -0.0000000    -0.0000000     5.2009934        0.000000000   0.000000000   1.208074067

                       Lattice parameters(A)       Cell Angles
                    a =      5.200993          alpha =   90.000000
                    b =      5.200993          beta  =   90.000000
                    c =      5.200993          gamma =   90.000000

                Current cell volume =           140.688604 A**3

 LBFGS: Final Enthalpy     = -5.68158670E+003 eV
 LBFGS: Final bulk modulus =      65.42639 GPa

  *** There were at least     1 warnings during this run ***
  *** => please check the whole of this file carefully!  ***

 ******************************** Symmetrised Forces ********************************
 *                           Cartesian components (eV/A)                            *
 *                         x                    y                    z              *
 * O               1      0.00000              0.00000              0.00000         *
 * O               2      0.00000              0.00000              0.00000         *
 * O               3      0.00000              0.00000              0.00000         *
 * O               4      0.00000              0.00000              0.00000         *
 * Ca              1      0.00000              0.00000              0.00000         *
 * Ca              2      0.00000              0.00000              0.00000         *
 * Ca              3      0.00000              0.00000              0.00000         *
 * Ca              4      0.00000              0.00000              0.00000         *

 *********** Symmetrised Stress Tensor ***********
 *          Cartesian components (GPa)           *
 *             x             y             z     *
 *  x     -0.021847     -0.000000      0.000000  *
 *  y     -0.000000     -0.021847      0.000000  *
 *  z      0.000000      0.000000     -0.021847  *
 *  Pressure:    0.0218                          *

 Pseudo atomic calculation performed for O 2s2 2p4

[...]

 Pseudo atomic calculation performed for Ca 3s2 3p6 4s2

 Converged in 24 iterations to a total energy of -1001.5497 eV

Charge spilling parameter for spin component 1 = 0.31%

            Orbital Populations
     Ion    Atom   Orbital             Charge
      O     1      S                    1.952
      O     1      Px                   1.641
      O     1      Py                   1.769
      O     1      Pz                   1.698
      O     2      S                    1.952
      O     2      Px                   1.640
      O     2      Py                   1.769
      O     2      Pz                   1.698
      O     3      S                    1.952
      O     3      Px                   1.641
      O     3      Py                   1.769
      O     3      Pz                   1.698
      O     4      S                    1.952
      O     4      Px                   1.640
      O     4      Py                   1.769
      O     4      Pz                   1.698
     Ca     1      S                    2.003
     Ca     1      Px                   1.998
     Ca     1      Py                   2.000
     Ca     1      Pz                   1.999
     Ca     1      S                    0.271
     Ca     1      Dzz                  0.191
     Ca     1      Dzy                  0.086
     Ca     1      Dzx                  0.127
     Ca     1      Dxx-yy               0.155
     Ca     1      Dxy                  0.110
     Ca     2      S                    2.003
     Ca     2      Px                   1.998
     Ca     2      Py                   2.000
     Ca     2      Pz                   1.999
     Ca     2      S                    0.271
     Ca     2      Dzz                  0.191
     Ca     2      Dzy                  0.086
     Ca     2      Dzx                  0.127
     Ca     2      Dxx-yy               0.155
     Ca     2      Dxy                  0.110
     Ca     3      S                    2.003
     Ca     3      Px                   1.998
     Ca     3      Py                   2.000
     Ca     3      Pz                   1.999
     Ca     3      S                    0.271
     Ca     3      Dzz                  0.191
     Ca     3      Dzy                  0.086
     Ca     3      Dzx                  0.127
     Ca     3      Dxx-yy               0.155
     Ca     3      Dxy                  0.110
     Ca     4      S                    2.003
     Ca     4      Px                   1.998
     Ca     4      Py                   2.000
     Ca     4      Pz                   1.999
     Ca     4      S                    0.271
     Ca     4      Dzz                  0.191
     Ca     4      Dzy                  0.086
     Ca     4      Dzx                  0.127
     Ca     4      Dxx-yy               0.155
     Ca     4      Dxy                  0.110
                           Total:      64.000

     Atomic Populations (Mulliken)
Species          Ion     s      p      d      f     Total  Charge (e)
  O               1     1.95   5.11   0.00   0.00   7.06    -1.06
  O               2     1.95   5.11   0.00   0.00   7.06    -1.06
  O               3     1.95   5.11   0.00   0.00   7.06    -1.06
  O               4     1.95   5.11   0.00   0.00   7.06    -1.06
  Ca              1     2.27   6.00   0.67   0.00   8.94     1.06
  Ca              2     2.27   6.00   0.67   0.00   8.94     1.06
  Ca              3     2.27   6.00   0.67   0.00   8.94     1.06
  Ca              4     2.27   6.00   0.67   0.00   8.94     1.06

                 Bond                   Population      Length (A)
               O 4 -- Ca 3                   0.28        2.60050
               O 4 -- Ca 2                   0.28        2.60050
               O 4 -- Ca 1                   0.28        2.60050
               O 3 -- Ca 4                   0.28        2.60050
               O 3 -- Ca 2                   0.28        2.60050
               O 3 -- Ca 1                   0.28        2.60050
               O 2 -- Ca 4                   0.28        2.60050
               O 2 -- Ca 3                   0.28        2.60050
               O 2 -- Ca 1                   0.28        2.60050
               O 1 -- Ca 4                   0.28        2.60050
               O 1 -- Ca 3                   0.28        2.60050
               O 1 -- Ca 2                   0.28        2.60050

Writing analysis data to MgO.castep_bin

Writing model to MgO.check

 A BibTeX formatted list of references used in this run has been written to
 MgO.bib

Initialisation time =      9.66 s
Calculation time    =    269.50 s
Finalisation time   =      0.11 s
Total time          =    279.27 s